\ LP format - for model browsing. Use MPS format to capture full model detail.
Maximize
  47 z1 + 21.54545454545455 z2 + 38.18181818181818 z3 + 12.72727272727273 z4
   + 21.54545454545455 z5 + 21.54545454545455 z6 + 19 z7
   + 8.81818181818182 z8 + 17.63636363636364 z9 + 30.36363636363637 z10
   + 12.72727272727273 z11 + 46 z12 + 17.63636363636363 z13 + 32 z14
   + 38.18181818181817 z15 + 33.27272727272727 z16 + 36 z17 + 40 z18
   + 48 z19 + 40 z20
Subject To
 constraint1: 47 z1 + 24 z2 + 41 z3 + 14 z4 + 26 z5 + 23 z6 + 19 z7 + 11 z8
   + 18 z9 + 33 z10 + 13 z11 + 46 z12 + 20 z13 + 32 z14 + 41 z15 + 39 z16
   + 36 z17 + 41 z18 + 48 z19 + 40 z20 <= 200
 constraints2_7_&_14: z7 - z14 = 0
 constraints2_14_&_16: z14 - z16 = 0
 constraints2_16_&_17: z16 - z17 = 0
 constraints2_17_&_19: z17 - z19 = 0
 constraints3_1_|_9: z1 + z9 <= 1
 constraints3_1_|_12: z1 + z12 <= 1
 constraints3_1_|_20: z1 + z20 <= 1
 constraints3_6_|_7: z6 + z7 <= 1
 constraints3_6_|_14: z6 + z14 <= 1
 constraints3_6_|_19: z6 + z19 <= 1
 constraints3_7_|_9: z7 + z9 <= 1
 constraints3_7_|_10: z7 + z10 <= 1
 constraints3_7_|_12: z7 + z12 <= 1
 constraints3_7_|_20: z7 + z20 <= 1
 constraints3_9_|_14: z9 + z14 <= 1
 constraints3_10_|_14: z10 + z14 <= 1
 constraints3_10_|_19: z10 + z19 <= 1
 constraints3_12_|_14: z12 + z14 <= 1
 constraints3_12_|_15: z12 + z15 <= 1
 constraints3_14_|_20: z14 + z20 <= 1
 constraints3_18_|_20: z18 + z20 <= 1
Bounds
Binaries
 z1 z2 z3 z4 z5 z6 z7 z8 z9 z10 z11 z12 z13 z14 z15 z16 z17 z18 z19 z20
End
